NAME 
ROWS
 N  OBJ
 L  R0      
 E  R1      
 E  R2      
 E  R3      
 E  R4      
 E  R5      
 E  R6      
 E  R7      
 E  R8      
 E  R9      
 E  R10     
 E  R11     
 E  R12     
 E  R13     
 E  R14     
 E  R15     
COLUMNS
    MARKER    'MARKER'                 'INTORG'
    I0(9)     OBJ       -128
    I0(9)     R0        42
    I0(9)     R1        14
    I0(9)     R3        6
    I0(9)     R4        19
    I0(9)     R5        8
    I0(9)     R6        16
    I0(9)     R8        2
    I0(9)     R9        5
    I0(9)     R15       1
    I1(8)     OBJ       -149
    I1(8)     R0        134
    I1(8)     R1        6
    I1(8)     R3        4
    I1(8)     R4        3
    I1(8)     R6        17
    I1(8)     R8        6
    I1(8)     R9        6
    I1(8)     R15       1
    I2(9)     OBJ       160
    I2(9)     R0        -68
    I2(9)     R3        1
    I2(9)     R4        9
    I2(9)     R5        14
    I2(9)     R6        18
    I2(9)     R7        7
    I2(9)     R8        2
    I2(9)     R9        1
    I2(9)     R15       1
    I3(9)     OBJ       15
    I3(9)     R0        97
    I3(9)     R1        -1
    I3(9)     R2        9
    I3(9)     R3        15
    I3(9)     R5        2
    I3(9)     R6        18
    I3(9)     R7        8
    I3(9)     R8        1
    I3(9)     R15       1
    I4(10)    OBJ       -31
    I4(10)    R0        -189
    I4(10)    R1        18
    I4(10)    R2        11
    I4(10)    R4        17
    I4(10)    R5        3
    I4(10)    R6        18
    I4(10)    R7        17
    I4(10)    R8        12
    I4(10)    R9        15
    I4(10)    R15       1
    I5(11)    OBJ       -32
    I5(11)    R0        1
    I5(11)    R1        18
    I5(11)    R2        19
    I5(11)    R3        7
    I5(11)    R4        7
    I5(11)    R5        10
    I5(11)    R6        12
    I5(11)    R7        2
    I5(11)    R8        7
    I5(11)    R9        14
    I5(11)    R15       1
    I6(8)     OBJ       7
    I6(8)     R0        -127
    I6(8)     R1        2
    I6(8)     R5        16
    I6(8)     R6        4
    I6(8)     R7        19
    I6(8)     R8        -1
    I6(8)     R9        16
    I6(8)     R15       1
    I7(8)     OBJ       74
    I7(8)     R0        -4
    I7(8)     R1        9
    I7(8)     R2        2
    I7(8)     R3        3
    I7(8)     R5        2
    I7(8)     R6        1
    I7(8)     R9        5
    I7(8)     R15       1
    I8(10)    OBJ       168
    I8(10)    R0        97
    I8(10)    R1        6
    I8(10)    R2        1
    I8(10)    R3        19
    I8(10)    R4        17
    I8(10)    R5        1
    I8(10)    R7        6
    I8(10)    R8        15
    I8(10)    R9        6
    I8(10)    R15       1
    MARKER    'MARKER'                 'INTEND'
    C9(12)    OBJ       -4
    C9(12)    R0        2
    C9(12)    R1        9
    C9(12)    R3        10
    C9(12)    R4        9
    C9(12)    R5        14
    C9(12)    R6        10
    C9(12)    R8        7
    C9(12)    R9        4
    C9(12)    R11       13
    C9(12)    R12       9
    C9(12)    R13       9
    C9(12)    R14       18
    C10(13)   OBJ       9
    C10(13)   R0        9
    C10(13)   R1        10
    C10(13)   R2        16
    C10(13)   R3        3
    C10(13)   R4        -1
    C10(13)   R5        16
    C10(13)   R6        -1
    C10(13)   R7        3
    C10(13)   R8        9
    C10(13)   R9        2
    C10(13)   R10       18
    C10(13)   R12       15
    C10(13)   R14       17
    C11(12)   OBJ       -6
    C11(12)   R0        6
    C11(12)   R1        13
    C11(12)   R2        17
    C11(12)   R3        10
    C11(12)   R5        9
    C11(12)   R6        18
    C11(12)   R7        5
    C11(12)   R8        16
    C11(12)   R10       3
    C11(12)   R11       14
    C11(12)   R12       4
    C11(12)   R14       1
    C12(9)    OBJ       7
    C12(9)    R0        9
    C12(9)    R1        7
    C12(9)    R3        11
    C12(9)    R4        7
    C12(9)    R5        5
    C12(9)    R8        13
    C12(9)    R9        15
    C12(9)    R10       7
    C12(9)    R12       -1
    C13(10)   OBJ       -9
    C13(10)   R0        -6
    C13(10)   R1        13
    C13(10)   R2        2
    C13(10)   R6        5
    C13(10)   R7        16
    C13(10)   R8        18
    C13(10)   R9        8
    C13(10)   R11       5
    C13(10)   R13       17
    C13(10)   R14       17
    C14(12)   OBJ       2
    C14(12)   R0        -9
    C14(12)   R1        -1
    C14(12)   R2        15
    C14(12)   R3        17
    C14(12)   R4        15
    C14(12)   R5        12
    C14(12)   R8        12
    C14(12)   R9        3
    C14(12)   R10       1
    C14(12)   R12       9
    C14(12)   R13       7
    C14(12)   R14       16
    C15(1)    R1        1
    C16(1)    R2        1
    C17(1)    R3        1
    C18(1)    R4        1
    C19(1)    R5        1
    C20(1)    R6        1
    C21(1)    R7        1
    C22(1)    R8        1
    C23(1)    R9        1
    C24(1)    R10       1
    C25(1)    R11       1
    C26(1)    R12       1
    C27(1)    R13       1
    C28(1)    R14       1
    C29(1)    R15       1
RHS
    RHS1      R0        2.9015384615384613e+02
    RHS1      R1        69
    RHS1      R2        76
    RHS1      R3        51
    RHS1      R4        58
    RHS1      R5        51
    RHS1      R6        90
    RHS1      R7        70
    RHS1      R8        86
    RHS1      R9        96
    RHS1      R10       96
    RHS1      R11       97
    RHS1      R12       64
    RHS1      R13       82
    RHS1      R14       76
    RHS1      R15       3
BOUNDS
 UP BND1      I0(9)     2
 UP BND1      I1(8)     2
 UP BND1      I2(9)     2
 UP BND1      I3(9)     2
 UP BND1      I4(10)    2
 UP BND1      I5(11)    2
 UP BND1      I6(8)     2
 UP BND1      I7(8)     2
 UP BND1      I8(10)    2
ENDATA
